(set-info :smt-lib-version 2.6)
(set-logic LIA)
(set-info :source "|
Generated by the tool Ultimate Automizer [1,2] which implements
an automata theoretic approach [3] to software verification.

This SMT script belongs to a set of SMT scripts that was generated by
applying Ultimate Automizer to benchmarks [4] from the SV-COMP 2019 [5,6].
This script might _not_ contain all SMT commands that are used by
Ultimate Automizer. In order to satisfy the restrictions of
the SMT-COMP we have to drop e.g., the commands for getting
values (resp. models), unsatisfiable cores and interpolants.

2019-04-27, Matthias Heizmann (heizmann@informatik.uni-freiburg.de)

[1] https://ultimate.informatik.uni-freiburg.de/automizer/
[2] Matthias Heizmann, Yu-Fang Chen, Daniel Dietsch, Marius Greitschus,
     Jochen Hoenicke, Yong Li, Alexander Nutz, Betim Musa, Christian
     Schilling, Tanja Schindler, Andreas Podelski: Ultimate Automizer
     and the Search for Perfect Interpolants - (Competition Contribution).
     TACAS (2) 2018: 447-451
[3] Matthias Heizmann, Jochen Hoenicke, Andreas Podelski: Software Model
     Checking for People Who Love Automata. CAV 2013:36-52
[4] https://github.com/sosy-lab/sv-benchmarks
[5] Dirk Beyer: Automatic Verification of C and Java Programs: SV-COMP 2019.
     TACAS (3) 2019: 133-155
[6] https://sv-comp.sosy-lab.org/2019/
|")
(set-info :license "https://creativecommons.org/licenses/by/4.0/")
(set-info :category "industrial")
(set-info :status unknown)
(declare-fun c_main_~c~0 () Int)
(declare-fun c_main_~i~0 () Int)
(assert (exists ((v_main_~c~0_17 Int)) (let ((.cse1 (mod v_main_~c~0_17 256))) (let ((.cse0 (mod (+ .cse1 4294967248) 4294967296))) (and (= c_main_~i~0 .cse0) (<= .cse0 2147483647) (<= v_main_~c~0_17 127) (<= .cse1 57) (<= 0 (+ v_main_~c~0_17 128)) (<= 48 .cse1))))))
(assert (not (let ((.cse21 (mod c_main_~c~0 256))) (let ((.cse20 (mod (+ .cse21 (* 10 c_main_~i~0) 4294967248) 4294967296))) (let ((.cse7 (<= .cse20 2147483647)) (.cse0 (< .cse21 48)) (.cse1 (< 57 .cse21)) (.cse2 (< 2147483647 .cse20))) (and (or .cse0 .cse1 .cse2 (forall ((v_prenex_6 Int) (v_prenex_5 Int)) (let ((.cse6 (mod v_prenex_5 256))) (let ((.cse3 (mod (+ (* 10 (mod (+ (mod c_main_~c~0 256) (* 10 c_main_~i~0) 4294967248) 4294967296)) .cse6 4294967248) 4294967296)) (.cse4 (mod v_prenex_6 256))) (let ((.cse5 (mod (+ (* 10 .cse3) .cse4 4294967248) 4294967296))) (or (<= .cse3 2147483647) (< 57 .cse4) (< 4294967295 .cse5) (<= .cse5 2147483647) (< .cse6 48) (< .cse4 48) (< 57 .cse6))))))) (or .cse0 .cse7 .cse1 (forall ((v_prenex_4 Int) (v_prenex_3 Int)) (let ((.cse8 (mod v_prenex_4 256))) (let ((.cse10 (mod (+ (* 10 (mod (+ (mod c_main_~c~0 256) (* 10 c_main_~i~0) 4294967248) 4294967296)) .cse8 4294967248) 4294967296)) (.cse11 (mod v_prenex_3 256))) (let ((.cse9 (mod (+ (* 10 .cse10) .cse11 4294967248) 4294967296))) (or (< .cse8 48) (< 4294967295 .cse9) (<= .cse9 2147483647) (<= .cse10 2147483647) (< 57 .cse11) (< .cse11 48) (< 57 .cse8))))))) (or (forall ((v_prenex_2 Int) (v_subst_1 Int)) (let ((.cse14 (mod v_subst_1 256))) (let ((.cse15 (mod (+ .cse14 (* 10 (mod (+ (mod c_main_~c~0 256) (* 10 c_main_~i~0) 4294967248) 4294967296)) 4294967248) 4294967296)) (.cse13 (mod v_prenex_2 256))) (let ((.cse12 (mod (+ (* 10 .cse15) .cse13 4294967248) 4294967296))) (or (<= .cse12 2147483647) (< 57 .cse13) (< 57 .cse14) (< .cse14 48) (< 2147483647 .cse15) (< 4294967295 .cse12) (< .cse13 48)))))) .cse0 .cse7 .cse1) (or .cse0 (forall ((v_prenex_7 Int) (v_prenex_8 Int)) (let ((.cse19 (mod v_prenex_8 256))) (let ((.cse18 (mod (+ .cse19 (* 10 (mod (+ (mod c_main_~c~0 256) (* 10 c_main_~i~0) 4294967248) 4294967296)) 4294967248) 4294967296)) (.cse17 (mod v_prenex_7 256))) (let ((.cse16 (mod (+ (* 10 .cse18) .cse17 4294967248) 4294967296))) (or (< 4294967295 .cse16) (< 57 .cse17) (< 2147483647 .cse18) (< 57 .cse19) (<= .cse16 2147483647) (< .cse19 48) (< .cse17 48)))))) .cse1 .cse2)))))))
(check-sat)
(exit)
